80 8
62 98
33 70
82 99
63 30
32 3
65 1
99 94
63 31
37 99
74 54
49 8
10 49
57 26
90 1
72 27
90 6
13 96
69 16
49 29
79 44
33 23
54 81
52 32
43 71
74 4
76 55
38 97
28 99
47 3
97 32
45 8
29 65
57 85
27 52
22 43
83 32
12 11
79 19
56 83
11 88
45 66
69 63
3 23
49 21
1 4
26 10
2 41
29 76
40 75
83 96
17 35
37 83
39 68
28 39
4 78
9 45
18 86
94 86
41 78
10 79
31 6
19 80
38 34
35 27
32 75
67 1
98 86
58 65
10 61
47 93
45 57
80 44
69 59
17 25
62 24
93 54
26 63
64 26
93 64
59 51
524 637
360 412
571 678
533 597
448 551
411 492
602 730
594 729
